n = 55;
costtab =
  [|1, 11, 55, -484,
   |1, 28, 55, -1116,
   |1, 48, 55, -430,
   |1, 1, 1, 0,
   |2, 10, 12, -1031,
   |2, 10, 17, -1031,
   |2, 10, 27, -1031,
   |2, 10, 46, -1032,
   |2, 10, 53, -1021,
   |2, 10, 54, -1031,
   |2, 12, 10, -348,
   |2, 12, 17, -347,
   |2, 12, 27, -347,
   |2, 12, 46, -348,
   |2, 12, 53, -340,
   |2, 12, 54, -348,
   |2, 17, 10, -1161,
   |2, 17, 12, -1160,
   |2, 17, 27, -1162,
   |2, 17, 46, -1161,
   |2, 17, 53, -1154,
   |2, 17, 54, -1161,
   |2, 27, 10, -1577,
   |2, 27, 12, -1576,
   |2, 27, 17, -1578,
   |2, 27, 46, -1577,
   |2, 27, 53, -1572,
   |2, 27, 54, -1578,
   |2, 46, 10, -1265,
   |2, 46, 12, -1264,
   |2, 46, 17, -1264,
   |2, 46, 27, -1264,
   |2, 46, 53, -1254,
   |2, 46, 54, -1264,
   |2, 53, 10, -430,
   |2, 53, 12, -431,
   |2, 53, 17, -432,
   |2, 53, 27, -434,
   |2, 53, 46, -429,
   |2, 53, 54, -434,
   |2, 54, 10, -1941,
   |2, 54, 12, -1941,
   |2, 54, 17, -1941,
   |2, 54, 27, -1941,
   |2, 54, 46, -1941,
   |2, 54, 53, -1936,
   |2, 2, 2, 0,
   |3, 13, 35, -311,
   |3, 13, 49, -308,
   |3, 35, 13, -516,
   |3, 35, 49, -514,
   |3, 49, 13, -1342,
   |3, 49, 35, -1342,
   |3, 3, 3, 0,
   |4, 38, 42, -686,
   |4, 38, 52, -705,
   |4, 42, 38, -690,
   |4, 42, 52, -679,
   |4, 52, 38, -606,
   |4, 52, 42, -576,
   |4, 4, 4, 0,
   |5, 6, 17, -1654,
   |5, 6, 27, -1655,
   |5, 6, 30, -1666,
   |5, 6, 33, -1666,
   |5, 6, 42, -1637,
   |5, 6, 47, -1664,
   |5, 17, 6, -997,
   |5, 17, 27, -1009,
   |5, 17, 30, -999,
   |5, 17, 33, -997,
   |5, 17, 42, -1003,
   |5, 17, 47, -1001,
   |5, 27, 6, -724,
   |5, 27, 17, -735,
   |5, 27, 30, -727,
   |5, 27, 33, -725,
   |5, 27, 42, -730,
   |5, 27, 47, -731,
   |5, 30, 6, -781,
   |5, 30, 17, -771,
   |5, 30, 27, -772,
   |5, 30, 33, -781,
   |5, 30, 42, -756,
   |5, 30, 47, -780,
   |5, 33, 6, -1159,
   |5, 33, 17, -1147,
   |5, 33, 27, -1148,
   |5, 33, 30, -1159,
   |5, 33, 42, -1131,
   |5, 33, 47, -1157,
   |5, 42, 6, -717,
   |5, 42, 17, -740,
   |5, 42, 27, -742,
   |5, 42, 30, -722,
   |5, 42, 33, -719,
   |5, 42, 47, -730,
   |5, 47, 6, -461,
   |5, 47, 17, -455,
   |5, 47, 27, -458,
   |5, 47, 30, -462,
   |5, 47, 33, -461,
   |5, 47, 42, -447,
   |5, 5, 5, 0,
   |6, 5, 22, -1662,
   |6, 5, 33, -1666,
   |6, 22, 5, -468,
   |6, 22, 33, -469,
   |6, 33, 5, -567,
   |6, 33, 22, -564,
   |6, 6, 6, 0,
   |7, 29, 31, -544,
   |7, 29, 40, -530,
   |7, 31, 29, -598,
   |7, 31, 40, -567,
   |7, 40, 29, -331,
   |7, 40, 31, -314,
   |7, 7, 7, 0,
   |8, 41, 50, -249,
   |8, 50, 41, -195,
   |8, 8, 8, 0,
   |9, 49, 53, -267,
   |9, 53, 49, -1138,
   |9, 9, 9, 0,
   |10, 2, 12, -1032,
   |10, 2, 49, -1019,
   |10, 12, 2, -756,
   |10, 12, 49, -744,
   |10, 49, 2, -961,
   |10, 49, 12, -962,
   |10, 55, 2, -611,
   |10, 55, 12, -613,
   |10, 55, 49, -613,
   |10, 10, 10, 0,
   |11, 25, 1, -570,
   |11, 25, 34, -582,
   |11, 34, 1, -346,
   |11, 34, 25, -344,
   |11, 11, 11, 0,
   |12, 2, 10, -310,
   |12, 2, 39, -331,
   |12, 2, 46, -307,
   |12, 10, 2, -717,
   |12, 10, 39, -749,
   |12, 10, 46, -756,
   |12, 39, 2, -385,
   |12, 39, 10, -395,
   |12, 39, 46, -394,
   |12, 46, 2, -939,
   |12, 46, 10, -980,
   |12, 46, 39, -972,
   |12, 12, 12, 0,
   |13, 3, 16, -312,
   |13, 16, 3, -611,
   |13, 13, 13, 0,
   |14, 18, 23, -515,
   |14, 18, 38, -520,
   |14, 23, 18, -754,
   |14, 23, 38, -761,
   |14, 38, 18, -466,
   |14, 38, 23, -468,
   |14, 14, 14, 0,
   |15, 37, 43, -528,
   |15, 37, 45, -496,
   |15, 43, 37, -752,
   |15, 43, 45, -722,
   |15, 45, 37, -680,
   |15, 45, 43, -682,
   |15, 15, 15, 0,
   |16, 16, 16, 0,
   |17, 2, 5, -1133,
   |17, 2, 27, -1121,
   |17, 2, 30, -1125,
   |17, 2, 39, -1162,
   |17, 2, 49, -1149,
   |17, 2, 54, -1129,
   |17, 5, 2, -981,
   |17, 5, 27, -1007,
   |17, 5, 30, -1007,
   |17, 5, 39, -976,
   |17, 5, 49, -1001,
   |17, 5, 54, -1009,
   |17, 27, 2, -448,
   |17, 27, 5, -485,
   |17, 27, 30, -485,
   |17, 27, 39, -446,
   |17, 27, 49, -477,
   |17, 27, 54, -487,
   |17, 30, 2, -1077,
   |17, 30, 5, -1110,
   |17, 30, 27, -1110,
   |17, 30, 39, -1075,
   |17, 30, 49, -1093,
   |17, 30, 54, -1109,
   |17, 39, 2, -707,
   |17, 39, 5, -673,
   |17, 39, 27, -664,
   |17, 39, 30, -669,
   |17, 39, 49, -692,
   |17, 39, 54, -670,
   |17, 49, 2, -862,
   |17, 49, 5, -865,
   |17, 49, 27, -863,
   |17, 49, 30, -853,
   |17, 49, 39, -860,
   |17, 49, 54, -867,
   |17, 54, 2, -918,
   |17, 54, 5, -950,
   |17, 54, 27, -949,
   |17, 54, 30, -946,
   |17, 54, 39, -913,
   |17, 54, 49, -943,
   |17, 17, 17, 0,
   |18, 14, 26, -499,
   |18, 14, 38, -518,
   |18, 26, 14, -596,
   |18, 26, 38, -613,
   |18, 38, 14, -392,
   |18, 38, 26, -391,
   |18, 18, 18, 0,
   |19, 29, 37, -580,
   |19, 29, 50, -620,
   |19, 37, 29, -272,
   |19, 37, 50, -285,
   |19, 50, 29, -1063,
   |19, 50, 37, -1035,
   |19, 19, 19, 0,
   |20, 48, 53, -314,
   |20, 53, 48, -816,
   |20, 20, 20, 0,
   |21, 32, 44, -376,
   |21, 32, 51, -364,
   |21, 44, 32, -626,
   |21, 44, 51, -644,
   |21, 51, 32, -379,
   |21, 51, 44, -409,
   |21, 21, 21, 0,
   |22, 22, 22, 0,
   |23, 14, 35, -757,
   |23, 14, 52, -756,
   |23, 35, 14, -471,
   |23, 35, 52, -471,
   |23, 52, 14, -815,
   |23, 52, 35, -816,
   |23, 23, 23, 0,
   |24, 28, 39, -431,
   |24, 39, 28, -470,
   |24, 24, 24, 0,
   |25, 11, 34, -588,
   |25, 34, 11, -540,
   |25, 25, 25, 0,
   |26, 18, 29, -584,
   |26, 18, 41, -619,
   |26, 29, 18, -442,
   |26, 29, 41, -454,
   |26, 41, 18, -600,
   |26, 41, 29, -578,
   |26, 26, 26, 0,
   |27, 2, 5, -1556,
   |27, 2, 17, -1577,
   |27, 2, 39, -1578,
   |27, 2, 42, -1562,
   |27, 2, 54, -1550,
   |27, 5, 2, -714,
   |27, 5, 17, -713,
   |27, 5, 39, -711,
   |27, 5, 42, -728,
   |27, 5, 54, -734,
   |27, 17, 2, -488,
   |27, 17, 5, -465,
   |27, 17, 39, -488,
   |27, 17, 42, -468,
   |27, 17, 54, -456,
   |27, 39, 2, -1133,
   |27, 39, 5, -1109,
   |27, 39, 17, -1133,
   |27, 39, 42, -1115,
   |27, 39, 54, -1102,
   |27, 42, 2, -664,
   |27, 42, 5, -672,
   |27, 42, 17, -659,
   |27, 42, 39, -662,
   |27, 42, 54, -675,
   |27, 54, 2, -549,
   |27, 54, 5, -575,
   |27, 54, 17, -544,
   |27, 54, 39, -545,
   |27, 54, 42, -572,
   |27, 27, 27, 0,
   |28, 24, 1, -401,
   |28, 24, 39, -425,
   |28, 39, 1, -353,
   |28, 39, 24, -356,
   |28, 55, 1, -562,
   |28, 55, 24, -562,
   |28, 55, 39, -548,
   |28, 28, 28, 0,
   |29, 7, 19, -539,
   |29, 7, 26, -537,
   |29, 7, 37, -540,
   |29, 7, 50, -544,
   |29, 19, 7, -614,
   |29, 19, 26, -605,
   |29, 19, 37, -622,
   |29, 19, 50, -600,
   |29, 26, 7, -467,
   |29, 26, 19, -461,
   |29, 26, 37, -463,
   |29, 26, 50, -473,
   |29, 37, 7, -869,
   |29, 37, 19, -878,
   |29, 37, 26, -862,
   |29, 37, 50, -857,
   |29, 50, 7, -691,
   |29, 50, 19, -673,
   |29, 50, 26, -689,
   |29, 50, 37, -674,
   |29, 29, 29, 0,
   |30, 5, 17, -774,
   |30, 5, 37, -774,
   |30, 5, 47, -780,
   |30, 5, 54, -780,
   |30, 17, 5, -1107,
   |30, 17, 37, -1099,
   |30, 17, 47, -1108,
   |30, 17, 54, -1108,
   |30, 37, 5, -486,
   |30, 37, 17, -479,
   |30, 37, 47, -489,
   |30, 37, 54, -489,
   |30, 47, 5, -447,
   |30, 47, 17, -443,
   |30, 47, 37, -445,
   |30, 47, 54, -448,
   |30, 54, 5, -866,
   |30, 54, 17, -861,
   |30, 54, 37, -863,
   |30, 54, 47, -867,
   |30, 30, 30, 0,
   |31, 7, 36, -593,
   |31, 7, 47, -574,
   |31, 36, 7, -577,
   |31, 36, 47, -574,
   |31, 47, 7, -564,
   |31, 47, 36, -580,
   |31, 31, 31, 0,
   |32, 21, 45, -372,
   |32, 45, 21, -567,
   |32, 32, 32, 0,
   |33, 5, 6, -1115,
   |33, 6, 5, -523,
   |33, 33, 33, 0,
   |34, 11, 25, -339,
   |34, 25, 11, -530,
   |34, 55, 11, -961,
   |34, 55, 25, -960,
   |34, 34, 34, 0,
   |35, 3, 23, -483,
   |35, 23, 3, -438,
   |35, 35, 35, 0,
   |36, 31, 43, -585,
   |36, 31, 54, -584,
   |36, 43, 31, -656,
   |36, 43, 54, -656,
   |36, 54, 31, -894,
   |36, 54, 43, -896,
   |36, 36, 36, 0,
   |37, 15, 19, -501,
   |37, 15, 29, -499,
   |37, 15, 30, -523,
   |37, 15, 43, -492,
   |37, 15, 50, -507,
   |37, 19, 15, -287,
   |37, 19, 29, -314,
   |37, 19, 30, -274,
   |37, 19, 43, -305,
   |37, 19, 50, -312,
   |37, 29, 15, -848,
   |37, 29, 19, -878,
   |37, 29, 30, -842,
   |37, 29, 43, -871,
   |37, 29, 50, -876,
   |37, 30, 15, -488,
   |37, 30, 19, -452,
   |37, 30, 29, -457,
   |37, 30, 43, -475,
   |37, 30, 50, -468,
   |37, 43, 15, -261,
   |37, 43, 19, -288,
   |37, 43, 29, -291,
   |37, 43, 30, -279,
   |37, 43, 50, -289,
   |37, 50, 15, -1240,
   |37, 50, 19, -1258,
   |37, 50, 29, -1259,
   |37, 50, 30, -1235,
   |37, 50, 43, -1252,
   |37, 37, 37, 0,
   |38, 4, 14, -679,
   |38, 4, 18, -703,
   |38, 14, 4, -437,
   |38, 14, 18, -459,
   |38, 18, 4, -390,
   |38, 18, 14, -388,
   |38, 38, 38, 0,
   |39, 12, 17, -379,
   |39, 12, 24, -390,
   |39, 12, 27, -379,
   |39, 12, 28, -390,
   |39, 12, 54, -384,
   |39, 17, 12, -684,
   |39, 17, 24, -698,
   |39, 17, 27, -707,
   |39, 17, 28, -705,
   |39, 17, 54, -706,
   |39, 24, 12, -462,
   |39, 24, 17, -465,
   |39, 24, 27, -467,
   |39, 24, 28, -467,
   |39, 24, 54, -469,
   |39, 27, 12, -1110,
   |39, 27, 17, -1133,
   |39, 27, 24, -1126,
   |39, 27, 28, -1131,
   |39, 27, 54, -1133,
   |39, 28, 12, -354,
   |39, 28, 17, -364,
   |39, 28, 24, -359,
   |39, 28, 27, -364,
   |39, 28, 54, -365,
   |39, 54, 12, -1538,
   |39, 54, 17, -1556,
   |39, 54, 24, -1552,
   |39, 54, 27, -1556,
   |39, 54, 28, -1556,
   |39, 39, 39, 0,
   |40, 40, 40, 0,
   |41, 8, 26, -268,
   |41, 26, 8, -590,
   |41, 41, 41, 0,
   |42, 4, 5, -700,
   |42, 4, 27, -713,
   |42, 5, 4, -732,
   |42, 5, 27, -740,
   |42, 27, 4, -677,
   |42, 27, 5, -672,
   |42, 42, 42, 0,
   |43, 15, 36, -735,
   |43, 15, 37, -751,
   |43, 15, 47, -743,
   |43, 36, 15, -641,
   |43, 36, 37, -636,
   |43, 36, 47, -636,
   |43, 37, 15, -297,
   |43, 37, 36, -276,
   |43, 37, 47, -286,
   |43, 47, 15, -278,
   |43, 47, 36, -266,
   |43, 47, 37, -276,
   |43, 43, 43, 0,
   |44, 21, 51, -645,
   |44, 51, 21, -443,
   |44, 44, 44, 0,
   |45, 15, 32, -709,
   |45, 32, 15, -589,
   |45, 45, 45, 0,
   |46, 2, 12, -1265,
   |46, 2, 54, -1236,
   |46, 12, 2, -980,
   |46, 12, 54, -953,
   |46, 54, 2, -900,
   |46, 54, 12, -901,
   |46, 55, 2, -706,
   |46, 55, 12, -707,
   |46, 55, 54, -691,
   |46, 46, 46, 0,
   |47, 5, 30, -435,
   |47, 5, 31, -441,
   |47, 5, 43, -441,
   |47, 5, 54, -459,
   |47, 30, 5, -420,
   |47, 30, 31, -424,
   |47, 30, 43, -424,
   |47, 30, 54, -399,
   |47, 31, 5, -570,
   |47, 31, 30, -569,
   |47, 31, 43, -593,
   |47, 31, 54, -585,
   |47, 43, 5, -266,
   |47, 43, 30, -264,
   |47, 43, 31, -287,
   |47, 43, 54, -280,
   |47, 54, 5, -464,
   |47, 54, 30, -420,
   |47, 54, 31, -461,
   |47, 54, 43, -461,
   |47, 47, 47, 0,
   |48, 20, 1, -325,
   |48, 20, 53, -351,
   |48, 53, 1, -1098,
   |48, 53, 20, -1128,
   |48, 48, 48, 0,
   |49, 3, 9, -1341,
   |49, 3, 10, -1340,
   |49, 3, 17, -1344,
   |49, 3, 53, -1344,
   |49, 9, 3, -264,
   |49, 9, 10, -262,
   |49, 9, 17, -266,
   |49, 9, 53, -250,
   |49, 10, 3, -964,
   |49, 10, 9, -963,
   |49, 10, 17, -973,
   |49, 10, 53, -967,
   |49, 17, 3, -868,
   |49, 17, 9, -868,
   |49, 17, 10, -873,
   |49, 17, 53, -866,
   |49, 53, 3, -1029,
   |49, 53, 9, -1012,
   |49, 53, 10, -1028,
   |49, 53, 17, -1026,
   |49, 49, 49, 0,
   |50, 8, 19, -195,
   |50, 8, 29, -201,
   |50, 8, 37, -196,
   |50, 19, 8, -1034,
   |50, 19, 29, -1063,
   |50, 19, 37, -1065,
   |50, 29, 8, -670,
   |50, 29, 19, -693,
   |50, 29, 37, -692,
   |50, 37, 8, -1230,
   |50, 37, 19, -1260,
   |50, 37, 29, -1257,
   |50, 50, 50, 0,
   |51, 21, 44, -392,
   |51, 44, 21, -426,
   |51, 51, 51, 0,
   |52, 4, 23, -606,
   |52, 23, 4, -815,
   |52, 52, 52, 0,
   |53, 2, 9, -410,
   |53, 2, 20, -439,
   |53, 2, 48, -439,
   |53, 2, 49, -409,
   |53, 9, 2, -1114,
   |53, 9, 20, -1123,
   |53, 9, 48, -1122,
   |53, 9, 49, -1143,
   |53, 20, 2, -852,
   |53, 20, 9, -833,
   |53, 20, 48, -853,
   |53, 20, 49, -832,
   |53, 48, 2, -1128,
   |53, 48, 9, -1108,
   |53, 48, 20, -1129,
   |53, 48, 49, -1107,
   |53, 49, 2, -1003,
   |53, 49, 9, -1034,
   |53, 49, 20, -1012,
   |53, 49, 48, -1013,
   |53, 53, 53, 0,
   |54, 2, 17, -1941,
   |54, 2, 27, -1939,
   |54, 2, 30, -1926,
   |54, 2, 36, -1931,
   |54, 2, 39, -1941,
   |54, 2, 46, -1940,
   |54, 2, 47, -1926,
   |54, 17, 2, -950,
   |54, 17, 27, -950,
   |54, 17, 30, -940,
   |54, 17, 36, -945,
   |54, 17, 39, -950,
   |54, 17, 46, -949,
   |54, 17, 47, -940,
   |54, 27, 2, -573,
   |54, 27, 17, -576,
   |54, 27, 30, -567,
   |54, 27, 36, -574,
   |54, 27, 39, -575,
   |54, 27, 46, -573,
   |54, 27, 47, -567,
   |54, 30, 2, -851,
   |54, 30, 17, -856,
   |54, 30, 27, -858,
   |54, 30, 36, -860,
   |54, 30, 39, -853,
   |54, 30, 46, -859,
   |54, 30, 47, -867,
   |54, 36, 2, -887,
   |54, 36, 17, -892,
   |54, 36, 27, -895,
   |54, 36, 30, -890,
   |54, 36, 39, -889,
   |54, 36, 46, -887,
   |54, 36, 47, -891,
   |54, 39, 2, -1556,
   |54, 39, 17, -1556,
   |54, 39, 27, -1555,
   |54, 39, 30, -1543,
   |54, 39, 36, -1549,
   |54, 39, 46, -1555,
   |54, 39, 47, -1543,
   |54, 46, 2, -927,
   |54, 46, 17, -927,
   |54, 46, 27, -925,
   |54, 46, 30, -921,
   |54, 46, 36, -919,
   |54, 46, 39, -927,
   |54, 46, 47, -921,
   |54, 47, 2, -453,
   |54, 47, 17, -458,
   |54, 47, 27, -460,
   |54, 47, 30, -469,
   |54, 47, 36, -462,
   |54, 47, 39, -455,
   |54, 47, 46, -461,
   |54, 54, 54, 0,
   |];

